Debug: configOverride contents: IsWeighted_ObjFunc add_break_callback add_generate_reports add_threshold_distance_rssv bw_multiplier capacities cover_mode coverages cust_max_id distance_matrix loc_max_id max_ite_subprob_rssv method method_post_opt method_rssv_fp method_rssv_sp output p seed service size_subproblems_rssv subarea threads time time_cplex time_subprob_rssv weights 
Loading instance...
Scanning input data...
Distance matrix dimensions: 3039 x 3039 = 9235521
Elapsed time: 0 ms

Loading weights...
Skipped line: customer weight coord_x coord_y
Loaded 3038 weights
Loaded 3038 coordinates
Total customer demand: 154482.00
Elapsed time: 40 ms

Loading capacities...
Skipped line: location capacity coord_x coord_y
Loaded 3038 capacities
Loaded 3038 coordinates
Elapsed time: 13 ms

Loading distance matrix...
Computing euclidian distances...
bw multiplier: 0.50
Loaded 9232482 distances
dists stdev: 862.93
bandwidth h: 18.49
locations: 3038
customers: 3038
p: 600
Elapsed time: 149 ms

[INFO] Instance loaded
loc_max_id: 3038
loc_cnt: 3038
service: p3038_600
cust_max_id: 3038
cust_cnt: 3038
unweighted obj function
p: 600
total_demand: 154482.00


Default row names c1, c2 ... being created.
-------------------------------------------------
-------------------------------------------------
    EXACT_CPMP_BIN
-------------------------------------------------
Version identifier: 22.1.1.0 | 2022-11-28 | 9160aff4d
CPXPARAM_TimeLimit                               3600
Tried aggregator 1 time.
Presolve has eliminated 0 rows and 0 columns...
Reduced MIP has 6077 rows, 9232482 columns, and 18464964 nonzeros.
Reduced MIP has 9232482 binaries, 0 generals, 0 SOSs, and 0 indicators.
Presolve time = 38.10 sec. (16445.21 ticks)
Tried aggregator 1 time.
Presolve has eliminated 0 rows and 0 columns...
Detecting symmetries...
Reduced MIP has 6077 rows, 9232482 columns, and 18464964 nonzeros.
Reduced MIP has 9232482 binaries, 0 generals, 0 SOSs, and 0 indicators.
Presolve time = 58.89 sec. (18570.07 ticks)
Probing time = 22.63 sec. (2185.65 ticks)
Clique table members: 9232482.
MIP emphasis: balance optimality and feasibility.
MIP search method: dynamic search.
Parallel mode: deterministic, using up to 32 threads.
Root relaxation solution time = 71.50 sec. (16407.57 ticks)

        Nodes                                         Cuts/
   Node  Left     Objective  IInf  Best Integer    Best Bound    ItCnt     Gap

*     0+    0                      3146314.4058        0.0000           100.00%
*     0+    0                      2946811.5781        0.0000           100.00%
*     0+    0                      2924628.9114        0.0000           100.00%
*     0+    0                      2763315.8037        0.0000           100.00%
*     0+    0                      2592499.4312        0.0000           100.00%
*     0+    0                      2417585.0709        0.0000           100.00%
      0     0       -0.0000  2896  2417585.0709        0.0000     2940  100.00%
*     0+    0                      2379252.8452        0.0000           100.00%
*     0+    0                      2354723.3093        0.0000           100.00%
      0     0    48251.5764  3670  2354723.3093    Cuts: 1619     5918   97.95%
      0     0    76767.3223  4937  2354723.3093    Cuts: 1619     8689   96.74%
      0     0    92394.3954  6140  2354723.3093    Cuts: 1619    11535   96.08%
*     0+    0                      1457379.6279    92394.3954            93.66%
      0     0  -1.00000e+75     0  1457379.6279    92394.3954    11535   93.66%
*     0+    0                       441269.3683    92394.3954            79.06%
      0     0   100736.0762  6858   441269.3683    Cuts: 1619    14435   77.17%
*     0+    0                       401232.2933   100736.0762            74.89%
      0     0   107979.4668  7761   401232.2933    Cuts: 1619    17084   73.09%
Detecting symmetries...
*     0+    0                       370509.3186   107979.4668            70.86%
*     0+    0                       370460.6143   107979.4668            70.85%
      0     0   112243.6451  7946   370460.6143    Cuts: 1619    19800   69.70%
*     0+    0                       237503.4254   112243.6451            52.74%
      0     0  -1.00000e+75     0   237503.4254   112243.6451    19800   52.74%
      0     0   115195.8553  7708   237503.4254    Cuts: 1619    22477   51.50%
*     0+    0                       229965.1889   115195.8553            49.91%
      0     0   117312.0608  7710   229965.1889    Cuts: 1619    25350   48.99%
      0     0   118719.9141  7361   229965.1889    Cuts: 1619    27963   48.37%
*     0+    0                       227472.9382   118719.9141            47.81%
      0     0   119935.1321  7375   227472.9382    Cuts: 1619    30630   47.27%
      0     0   120757.7415  6557   227472.9382    Cuts: 1619    33029   46.91%
*     0+    0                       180919.1279   120757.7415            33.25%
      0     0   121298.3918  6623   180919.1279    Cuts: 1507    35262   32.95%

Clique cuts applied:  5043
Cover cuts applied:  7444
Flow cuts applied:  176
Mixed integer rounding cuts applied:  805
Zero-half cuts applied:  2113

Root node processing (before b&c):
  Real time             = 3606.04 sec. (2014369.69 ticks)
Parallel b&c, 32 threads:
  Real time             =    0.00 sec. (0.00 ticks)
  Sync time (average)   =    0.00 sec.
  Wait time (average)   =    0.00 sec.
                          ------------
Total (root+branch&cut) = 3606.04 sec. (2014369.69 ticks)
[INFO] Saving variables cplex:
./outputs/solutions/2024-08-26_LIT/VarsValues_cplex/test_lit_p3038_600_CPMP_Vars_Bin_p_600_EXACT_CPMP_BIN.txt
[INFO] Saving results cplex: 
./outputs/solutions/2024-08-26_LIT/Results_cplex/test_lit_p3038_600_Bin_EXACT_CPMP_BIN.csv

Final solution CPMP:
p locations: 3038 3036 3035 3000 2992 2976 2972 2945 2942 2915 2912 2911 2902 2898 2897 2891 2887 2875 2868 2860 2822 2819 2789 2786 2777 2768 2763 2748 2723 2722 2720 2718 2710 2707 2695 2677 2653 2637 2635 2617 2598 2594 2591 2580 2578 2566 2562 2559 2551 2549 2531 2524 2523 2501 2497 2493 2485 2473 2438 2430 2429 2414 2402 2360 2357 2339 2337 2335 2320 3021 2312 3010 2301 2290 2286 2988 2279 2278 2257 2240 2235 2226 2932 2223 2212 2195 2179 2161 2158 2153 2150 2144 2131 2122 2118 2115 2103 2094 2797 2088 2086 2081 2073 2063 2061 2058 2048 2042 2038 2032 2026 2731 2022 2017 2721 2012 2008 2000 1997 1961 1960 1952 1946 1932 1916 1909 1902 2609 1900 1887 1878 1870 1864 1841 1823 1820 1806 1803 1782 1774 1763 1754 1742 1733 1726 2426 1717 2411 1702 1695 1682 1680 684 661 998 631 627 290 2029 611 1285 602 2392 265 589 1972 1263 2704 577 572 1246 567 2322 904 2996 1578 2686 1977 559 553 2308 890 1227 2658 531 1542 1931 513 3012 2303 176 2638 511 2630 1921 503 501 2930 1512 496 493 483 820 1858 1149 473 810 462 2572 445 1119 2732 605 1147 438 597 2689 1271 430 93 426 2507 1798 380 369 365 362 2791 1373 1778 360 1034 691 354 357 2816 689 15 355 1748 330 1004 323 656 1028 319 489 1163 1740 322 2613 486 312 2603 1894 476 309 632 2387 969 465 840 131 1886 468 129 1140 2583 456 1839 1130 823 114 105 2197 779 1453 2311 184 858 1759 341 1015 2626 1917 499 165 74 2781 654 153 566 232 2998 1580 231 1242 570 69 1238 100 774 2866 1448 2427 1718 300 622 455 2957 830 121 86 795 2813 1395 2004 586 1260 419 47 756 2511 1802 1093 1789 371 204 541 878 2633 1924 1215 2952 116 283 957 2003 1294 682 1356 348 2780 1362 251 122 459 535 1918 1209 368 382 2884 1466 48 412 78 2284 1575 157 1383 1084 375 2874 38 2863 27 701 1092 2138 1429 201 910 1657 239 33 2948 112 1460 584 247 1835 417 2377 250 2462 335 1 221 54 56 2259 1550 132 545 44 211 626 137 144 1046 337 170 520 353 19 1367 1197 3025 189 863 2319 192 1218 2679 1970 552 218 892 2351 224 2766 639 2432 1723 305 1316 242 3008 881 1590 261 226 935 1854 436 1687 269 635 134 2428 301 975 2730 1312 7 716 1053 2858 731 1405 734 2877 41 750 2886 2177 50 759 2903 776 1463 804 816 2908 2199 1490 119 828 2211 1502 125 834 2265 138 847 475 1184 2939 1521 852 2982 2273 855 864 897 912 1631 922 1596 1638 929 2349 931 227 936 235 944 946 1283 252 961 2380 962 1676 967 1641 981 280 989 292 1001 2047 1338 1007 2431 1013 1016 1757 1048 1070 2825 1407 1082 1103 1816 1107 1117 1134 2555 1137 1138 1158 1172 1509 1179 98 1516 1186 1231 2663 1245 539 1248 1269 573 1282 1290 1310 1322 2745 1327 2373 1664 1332 1347 1360 1387 2112 1403 2121 1412 709 1418 1427 2849 13 1431 14 1432 2147 1438 1455 2190 63 772 1481 73 1491 789 1498 2917 81 1499 1535 2254 1545 1557 856 1565 2994 1576 1589 186 1604 1614 207 1625 1661 1673 
p size: 600
objective: 180919.127948979759822
sum (dij * xij) 
demand/capacity: 154482.000000000000000/192600
Solution is Feasible
Statistics:
Max distance: 578.205845698571238
Min distance: 0.000000000000000
Avg distance: 59.552050016122372
Std deviation distance: 51.022220318834869


Final total elapsed time: 3658s
[INFO] Saving assignment: ./outputs/solutions/2024-08-26_LIT/Assignments/test_lit_p3038_600_p_600_EXACT_CPMP_BIN.txt
[INFO] Saving results: ./outputs/solutions/2024-08-26_LIT/test_lit_p3038_600_results_EXACT_CPMP_BIN.csv
[INFO] Saving all results: ./outputs/solutions/test_all_results.csv
Post Optimization: null


-------------------------------------------------
Post Optimization
-------------------------------------------------
method: null
-------------------------------------------------
Time for post-optimization: -58.000000000000000s
PostOptimization constructor
p locations: 3038 3036 3035 3000 2992 2976 2972 2945 2942 2915 2912 2911 2902 2898 2897 2891 2887 2875 2868 2860 2822 2819 2789 2786 2777 2768 2763 2748 2723 2722 2720 2718 2710 2707 2695 2677 2653 2637 2635 2617 2598 2594 2591 2580 2578 2566 2562 2559 2551 2549 2531 2524 2523 2501 2497 2493 2485 2473 2438 2430 2429 2414 2402 2360 2357 2339 2337 2335 2320 3021 2312 3010 2301 2290 2286 2988 2279 2278 2257 2240 2235 2226 2932 2223 2212 2195 2179 2161 2158 2153 2150 2144 2131 2122 2118 2115 2103 2094 2797 2088 2086 2081 2073 2063 2061 2058 2048 2042 2038 2032 2026 2731 2022 2017 2721 2012 2008 2000 1997 1961 1960 1952 1946 1932 1916 1909 1902 2609 1900 1887 1878 1870 1864 1841 1823 1820 1806 1803 1782 1774 1763 1754 1742 1733 1726 2426 1717 2411 1702 1695 1682 1680 684 661 998 631 627 290 2029 611 1285 602 2392 265 589 1972 1263 2704 577 572 1246 567 2322 904 2996 1578 2686 1977 559 553 2308 890 1227 2658 531 1542 1931 513 3012 2303 176 2638 511 2630 1921 503 501 2930 1512 496 493 483 820 1858 1149 473 810 462 2572 445 1119 2732 605 1147 438 597 2689 1271 430 93 426 2507 1798 380 369 365 362 2791 1373 1778 360 1034 691 354 357 2816 689 15 355 1748 330 1004 323 656 1028 319 489 1163 1740 322 2613 486 312 2603 1894 476 309 632 2387 969 465 840 131 1886 468 129 1140 2583 456 1839 1130 823 114 105 2197 779 1453 2311 184 858 1759 341 1015 2626 1917 499 165 74 2781 654 153 566 232 2998 1580 231 1242 570 69 1238 100 774 2866 1448 2427 1718 300 622 455 2957 830 121 86 795 2813 1395 2004 586 1260 419 47 756 2511 1802 1093 1789 371 204 541 878 2633 1924 1215 2952 116 283 957 2003 1294 682 1356 348 2780 1362 251 122 459 535 1918 1209 368 382 2884 1466 48 412 78 2284 1575 157 1383 1084 375 2874 38 2863 27 701 1092 2138 1429 201 910 1657 239 33 2948 112 1460 584 247 1835 417 2377 250 2462 335 1 221 54 56 2259 1550 132 545 44 211 626 137 144 1046 337 170 520 353 19 1367 1197 3025 189 863 2319 192 1218 2679 1970 552 218 892 2351 224 2766 639 2432 1723 305 1316 242 3008 881 1590 261 226 935 1854 436 1687 269 635 134 2428 301 975 2730 1312 7 716 1053 2858 731 1405 734 2877 41 750 2886 2177 50 759 2903 776 1463 804 816 2908 2199 1490 119 828 2211 1502 125 834 2265 138 847 475 1184 2939 1521 852 2982 2273 855 864 897 912 1631 922 1596 1638 929 2349 931 227 936 235 944 946 1283 252 961 2380 962 1676 967 1641 981 280 989 292 1001 2047 1338 1007 2431 1013 1016 1757 1048 1070 2825 1407 1082 1103 1816 1107 1117 1134 2555 1137 1138 1158 1172 1509 1179 98 1516 1186 1231 2663 1245 539 1248 1269 573 1282 1290 1310 1322 2745 1327 2373 1664 1332 1347 1360 1387 2112 1403 2121 1412 709 1418 1427 2849 13 1431 14 1432 2147 1438 1455 2190 63 772 1481 73 1491 789 1498 2917 81 1499 1535 2254 1545 1557 856 1565 2994 1576 1589 186 1604 1614 207 1625 1661 1673 
p size: 600
objective: 180919.127948979759822
sum (dij * xij) 
demand/capacity: 154482.000000000000000/192600
Solution is Feasible
[INFO] Running post-optimization
Time limit: -58.000000000000000
Max size of the neigh: 4



Finishing post-optimization
p locations: 3038 3036 3035 3000 2992 2976 2972 2945 2942 2915 2912 2911 2902 2898 2897 2891 2887 2875 2868 2860 2822 2819 2789 2786 2777 2768 2763 2748 2723 2722 2720 2718 2710 2707 2695 2677 2653 2637 2635 2617 2598 2594 2591 2580 2578 2566 2562 2559 2551 2549 2531 2524 2523 2501 2497 2493 2485 2473 2438 2430 2429 2414 2402 2360 2357 2339 2337 2335 2320 3021 2312 3010 2301 2290 2286 2988 2279 2278 2257 2240 2235 2226 2932 2223 2212 2195 2179 2161 2158 2153 2150 2144 2131 2122 2118 2115 2103 2094 2797 2088 2086 2081 2073 2063 2061 2058 2048 2042 2038 2032 2026 2731 2022 2017 2721 2012 2008 2000 1997 1961 1960 1952 1946 1932 1916 1909 1902 2609 1900 1887 1878 1870 1864 1841 1823 1820 1806 1803 1782 1774 1763 1754 1742 1733 1726 2426 1717 2411 1702 1695 1682 1680 684 661 998 631 627 290 2029 611 1285 602 2392 265 589 1972 1263 2704 577 572 1246 567 2322 904 2996 1578 2686 1977 559 553 2308 890 1227 2658 531 1542 1931 513 3012 2303 176 2638 511 2630 1921 503 501 2930 1512 496 493 483 820 1858 1149 473 810 462 2572 445 1119 2732 605 1147 438 597 2689 1271 430 93 426 2507 1798 380 369 365 362 2791 1373 1778 360 1034 691 354 357 2816 689 15 355 1748 330 1004 323 656 1028 319 489 1163 1740 322 2613 486 312 2603 1894 476 309 632 2387 969 465 840 131 1886 468 129 1140 2583 456 1839 1130 823 114 105 2197 779 1453 2311 184 858 1759 341 1015 2626 1917 499 165 74 2781 654 153 566 232 2998 1580 231 1242 570 69 1238 100 774 2866 1448 2427 1718 300 622 455 2957 830 121 86 795 2813 1395 2004 586 1260 419 47 756 2511 1802 1093 1789 371 204 541 878 2633 1924 1215 2952 116 283 957 2003 1294 682 1356 348 2780 1362 251 122 459 535 1918 1209 368 382 2884 1466 48 412 78 2284 1575 157 1383 1084 375 2874 38 2863 27 701 1092 2138 1429 201 910 1657 239 33 2948 112 1460 584 247 1835 417 2377 250 2462 335 1 221 54 56 2259 1550 132 545 44 211 626 137 144 1046 337 170 520 353 19 1367 1197 3025 189 863 2319 192 1218 2679 1970 552 218 892 2351 224 2766 639 2432 1723 305 1316 242 3008 881 1590 261 226 935 1854 436 1687 269 635 134 2428 301 975 2730 1312 7 716 1053 2858 731 1405 734 2877 41 750 2886 2177 50 759 2903 776 1463 804 816 2908 2199 1490 119 828 2211 1502 125 834 2265 138 847 475 1184 2939 1521 852 2982 2273 855 864 897 912 1631 922 1596 1638 929 2349 931 227 936 235 944 946 1283 252 961 2380 962 1676 967 1641 981 280 989 292 1001 2047 1338 1007 2431 1013 1016 1757 1048 1070 2825 1407 1082 1103 1816 1107 1117 1134 2555 1137 1138 1158 1172 1509 1179 98 1516 1186 1231 2663 1245 539 1248 1269 573 1282 1290 1310 1322 2745 1327 2373 1664 1332 1347 1360 1387 2112 1403 2121 1412 709 1418 1427 2849 13 1431 14 1432 2147 1438 1455 2190 63 772 1481 73 1491 789 1498 2917 81 1499 1535 2254 1545 1557 856 1565 2994 1576 1589 186 1604 1614 207 1625 1661 1673 
p size: 600
objective: 180919.127948979759822
sum (dij * xij) 
demand/capacity: 154482.000000000000000/192600
Solution is Feasible
Solution Stats
Statistics:
Max distance: 578.205845698571238
Min distance: 0.000000000000000
Avg distance: 59.552050016122372
Std deviation distance: 51.022220318834869


[INFO] Saving assignment: ./outputs/solutions/2024-08-26_LIT/Assignments/test_lit_p3038_600_p_600_EXACT_CPMP_BIN_POSTOPT.txt
[INFO] Saving results: ./outputs/solutions/2024-08-26_LIT/test_lit_p3038_600_results_EXACT_CPMP_BIN_POSTOPT.csv
[INFO] Saving all results: ./outputs/solutions/test_all_results.csv
Final total elapsed time (post opt): 3658s
Elapsed time: 3658465 ms

